
Gurobi 11.0.3 (linux64, gurobi_cl) logging started Wed Nov 20 03:46:28 2024

Set parameter LogFile to value "gurobi.log"
Using license file /path/to/license.lic

Gurobi 11.0.3 (linux64, gurobi_cl) logging started Wed Nov 20 04:02:49 2024

Set parameter LogFile to value "gurobi.log"
Using license file /path/to/license.lic

Gurobi 11.0.3 (linux64, gurobi_cl) logging started Wed Nov 20 04:03:00 2024

Set parameter WLSAccessID
Set parameter WLSSecret
Set parameter LicenseID to value 2587263
Set parameter LogFile to value "gurobi.log"
Using license file /opt/gurobi1103/gurobi.lic
Academic license 2587263 - for non-commercial use only - registered to da___@illinois.edu

Gurobi 11.0.3 (linux64, gurobi_cl) logging started Wed Nov 20 04:23:33 2024

Set parameter WLSAccessID
Set parameter WLSSecret
Set parameter LicenseID to value 2587263
Set parameter LogFile to value "gurobi.log"
Using license file /opt/gurobi1103/gurobi.lic
Academic license 2587263 - for non-commercial use only - registered to da___@illinois.edu

Gurobi 11.0.3 (linux64, gurobi_cl) logging started Wed Nov 20 05:59:41 2024

Set parameter LogFile to value "gurobi.log"
Using license file /path/to/license.lic

Gurobi 11.0.3 (linux64, gurobi_cl) logging started Wed Nov 20 05:59:46 2024

Set parameter WLSAccessID
Set parameter WLSSecret
Set parameter LicenseID to value 2587263
Set parameter LogFile to value "gurobi.log"
Using license file /opt/gurobi1103/gurobi.lic
Academic license 2587263 - for non-commercial use only - registered to da___@illinois.edu

Gurobi 11.0.3 (linux64, gurobi_cl) logging started Wed Nov 20 17:09:13 2024

Set parameter LogFile to value "gurobi.log"
Using license file /path/to/license.lic

Gurobi 11.0.3 (linux64, gurobi_cl) logging started Wed Nov 20 17:09:23 2024

Set parameter WLSAccessID
Set parameter WLSSecret
Set parameter LicenseID to value 2587263
Set parameter LogFile to value "gurobi.log"
Using license file /opt/gurobi1103/gurobi.lic
Academic license 2587263 - for non-commercial use only - registered to da___@illinois.edu

Gurobi 11.0.3 (linux64, gurobi_cl) logging started Tue Nov 26 19:54:34 2024

Set parameter LogFile to value "gurobi.log"
Using license file /path/to/license.lic

Gurobi 11.0.3 (linux64, gurobi_cl) logging started Tue Nov 26 20:03:12 2024

Set parameter WLSAccessID
Set parameter WLSSecret
Set parameter LicenseID to value 2587263
Set parameter LogFile to value "gurobi.log"
Using license file /opt/gurobi1103/gurobi.lic
Academic license 2587263 - for non-commercial use only - registered to da___@illinois.edu

Gurobi 11.0.3 (linux64, gurobi_cl) logging started Wed Nov 27 04:24:37 2024

Set parameter WLSAccessID
Set parameter WLSSecret
Set parameter LicenseID to value 2587263
Set parameter LogFile to value "gurobi.log"
Using license file /opt/gurobi1103/gurobi.lic
Academic license 2587263 - for non-commercial use only - registered to da___@illinois.edu

Gurobi 11.0.3 (linux64, gurobi_cl) logging started Thu Nov 28 03:29:28 2024

Set parameter WLSAccessID
Set parameter WLSSecret
Set parameter LicenseID to value 2587263
Set parameter LogFile to value "gurobi.log"
Using license file /opt/gurobi1103/gurobi.lic
Academic license 2587263 - for non-commercial use only - registered to da___@illinois.edu

Gurobi 11.0.3 (linux64, gurobi_cl) logging started Thu Nov 28 21:03:25 2024

Set parameter WLSAccessID
Set parameter WLSSecret
Set parameter LicenseID to value 2587263
Set parameter LogFile to value "gurobi.log"
Using license file /opt/gurobi1103/gurobi.lic
Academic license 2587263 - for non-commercial use only - registered to da___@illinois.edu

Gurobi 11.0.3 (linux64, gurobi_cl) logging started Sat Nov 30 23:30:25 2024

Set parameter WLSAccessID
Set parameter WLSSecret
Set parameter LicenseID to value 2587263
Set parameter LogFile to value "gurobi.log"
Using license file /opt/gurobi1103/gurobi.lic
Academic license 2587263 - for non-commercial use only - registered to da___@illinois.edu

Gurobi 11.0.3 (linux64, gurobi_cl) logging started Tue Dec  3 05:31:43 2024

Set parameter WLSAccessID
Set parameter WLSSecret
Set parameter LicenseID to value 2587263
Set parameter LogFile to value "gurobi.log"
Using license file /opt/gurobi1103/gurobi.lic
Academic license 2587263 - for non-commercial use only - registered to da___@illinois.edu
